Minimize
  15 x_almonds + 12 x_cashews
Subject To
  c1: 200 x_almonds + 300 x_cashews >= 10000
  c2: 20 x_almonds + 25 x_cashews >= 800
  c3: x_almonds - 2.0 x_cashews >= 0
Integer
  x_almonds x_cashews
End